NAME : cp-chessboard-n49
COMMENT : (Claudio Procida)
TYPE : CVRP
DIMENSION : 49
EDGE_WEIGHT_TYPE : EUC_2D
CAPACITY : 480
NODE_COORD_SECTION
1 3 3
2 0 0
3 0 1
4 0 2
5 0 3
6 0 4
7 0 5
8 0 6
9 1 0
10 1 1
11 1 2
12 1 3
13 1 4
14 1 5
15 1 6
16 2 0
17 2 1
18 2 2
19 2 3
20 2 4
21 2 5
22 2 6
23 3 0
24 3 1
25 3 2
26 3 4
27 3 5
28 3 6
29 4 0
30 4 1
31 4 2
32 4 3
33 4 4
34 4 5
35 4 6
36 5 0
37 5 1
38 5 2
39 5 3
40 5 4
41 5 5
42 5 6
43 6 0
44 6 1
45 6 2
46 6 3
47 6 4
48 6 5
49 6 6
DEMAND_SECTION
1 0
2 10
3 10
4 10
5 10
6 10
7 10
8 10
9 10
10 10
11 10
12 10
13 10
14 10
15 10
16 10
17 10
18 10
19 10
20 10
21 10
22 10
23 10
24 10
25 10
26 10
27 10
28 10
29 10
30 10
31 10
32 10
33 10
34 10
35 10
36 10
37 10
38 10
39 10
40 10
41 10
42 10
43 10
44 10
45 10
46 10
47 10
48 10
49 10
DEPOT_SECTION
1
-1
EOF
